5 5
4 93 2 14 0 67 1 22 3 97
2 87 4 7 1 84 3 7 0 17
0 32 2 79 4 77 3 56 1 62
1 58 3 58 0 3 4 89 2 96
4 80 3 1 2 67 0 20 1 92
-1
0 1 5
0 1 2 4 5
0 1 2 4 5
0 1 3 4 5
0 3 5
-2
140 371
131 103 283 256
43 120 327 399
85 184 326 319
219 297

442 8
10 17 2 23 9
15 7 3 24 14
5 11 1 22 19
16 8 21 13 4
0 6 20 12 18
